
;this file is automatically generated: Wed May 11 14:29:34 IST 2022

;declarations generated

(declare-fun Gender ( Int) Int)
(declare-fun k86cba935_752a_4f30_867c_7c9bf3c4328d () Int)
(declare-fun oclExcludes ( Int Int) Bool)
(declare-fun type_bd4a0b47_c601_4082_b8e1_49ac329b1fe9_University ( Int) Bool)
(declare-fun type_bd4a0b47_c601_4082_b8e1_49ac329b1fe9_Person ( Int) Bool)
(declare-fun Cardinality ( Int) Int)
(declare-fun obj_593bb65d_e1d4_4f43_a3b9_6280be09e99e ( Int) Int)
(declare-fun student_year ( Int) Int)
(declare-fun type_bd4a0b47_c601_4082_b8e1_49ac329b1fe9_Child ( Int) Bool)
(declare-fun k24949aa0_e4d6_4660_89e8_2dc119dec0a5 () Int)
(declare-fun type_bd4a0b47_c601_4082_b8e1_49ac329b1fe9_Department ( Int) Bool)
(declare-fun oclSelect ( Int Bool) Int)
(declare-fun module_year ( Int) Int)
(declare-fun type_bd4a0b47_c601_4082_b8e1_49ac329b1fe9_Student ( Int) Bool)
(declare-fun container_ ( Int) Int)
(declare-fun rel_24d1f4fa_34d8_41a6_8837_3ac117062d82_choose ( Int Int) Bool)
(declare-fun oclIncludes ( Int Int) Bool)
(declare-fun type_bd4a0b47_c601_4082_b8e1_49ac329b1fe9_Module ( Int) Bool)
(declare-fun ObjAt ( Int Int) Int)

;formula(s) generated
(assert (forall ((x Int)(y Int)) (=> (and ( rel_24d1f4fa_34d8_41a6_8837_3ac117062d82_choose ( obj_593bb65d_e1d4_4f43_a3b9_6280be09e99e x )   ( obj_593bb65d_e1d4_4f43_a3b9_6280be09e99e y )  )  (and (and ( type_bd4a0b47_c601_4082_b8e1_49ac329b1fe9_Student x )  ( type_bd4a0b47_c601_4082_b8e1_49ac329b1fe9_Person x ) ) ( type_bd4a0b47_c601_4082_b8e1_49ac329b1fe9_Module y ) )) (or (or (or (= (* ( Cardinality ( container_ x )  )  0) (* ( Cardinality ( container_ y )  )  1)) (and (= (* ( Cardinality ( container_ y )  )  1) (* ( Cardinality ( container_ x )  )  k86cba935_752a_4f30_867c_7c9bf3c4328d)) (>= k86cba935_752a_4f30_867c_7c9bf3c4328d 0))) (= (* ( Cardinality ( container_ x )  )  0) (* ( Cardinality ( container_ y )  )  1))) (and (= (* ( Cardinality ( container_ y )  )  1) (* ( Cardinality ( container_ x )  )  k24949aa0_e4d6_4660_89e8_2dc119dec0a5)) (>= k24949aa0_e4d6_4660_89e8_2dc119dec0a5 0))))))
(assert (! (and (forall ((v Int)) (=> (and ( type_bd4a0b47_c601_4082_b8e1_49ac329b1fe9_Student v )  ( type_bd4a0b47_c601_4082_b8e1_49ac329b1fe9_Person v ) ) (>= ( student_year ( obj_593bb65d_e1d4_4f43_a3b9_6280be09e99e v )  )  1))) (forall ((v Int)) (=> (and ( type_bd4a0b47_c601_4082_b8e1_49ac329b1fe9_Student v )  ( type_bd4a0b47_c601_4082_b8e1_49ac329b1fe9_Person v ) ) (<= ( student_year ( obj_593bb65d_e1d4_4f43_a3b9_6280be09e99e v )  )  6)))):named l0))
(assert (! (and (exists ((s Int)) (and (and ( type_bd4a0b47_c601_4082_b8e1_49ac329b1fe9_Student s )  ( type_bd4a0b47_c601_4082_b8e1_49ac329b1fe9_Person s ) ) (= ( student_year ( obj_593bb65d_e1d4_4f43_a3b9_6280be09e99e s )  )  6))) (exists ((s Int)) (and (and ( type_bd4a0b47_c601_4082_b8e1_49ac329b1fe9_Student s )  ( type_bd4a0b47_c601_4082_b8e1_49ac329b1fe9_Person s ) ) (< ( student_year ( obj_593bb65d_e1d4_4f43_a3b9_6280be09e99e s )  )  6)))):named l1))
(assert (! (forall ((s1 Int)) (=> (and ( type_bd4a0b47_c601_4082_b8e1_49ac329b1fe9_Student s1 )  ( type_bd4a0b47_c601_4082_b8e1_49ac329b1fe9_Person s1 ) ) (forall ((m1 Int)) (=> (and ( type_bd4a0b47_c601_4082_b8e1_49ac329b1fe9_Module m1 )  ( rel_24d1f4fa_34d8_41a6_8837_3ac117062d82_choose ( obj_593bb65d_e1d4_4f43_a3b9_6280be09e99e s1 )   ( obj_593bb65d_e1d4_4f43_a3b9_6280be09e99e m1 )  ) ) (= ( student_year ( obj_593bb65d_e1d4_4f43_a3b9_6280be09e99e s1 )  )  ( module_year ( obj_593bb65d_e1d4_4f43_a3b9_6280be09e99e m1 )  ) ))))):named l2))
(assert (! (and (forall ((v Int)) (=> ( type_bd4a0b47_c601_4082_b8e1_49ac329b1fe9_Module v )  (>= ( module_year ( obj_593bb65d_e1d4_4f43_a3b9_6280be09e99e v )  )  1))) (forall ((v Int)) (=> ( type_bd4a0b47_c601_4082_b8e1_49ac329b1fe9_Module v )  (<= ( module_year ( obj_593bb65d_e1d4_4f43_a3b9_6280be09e99e v )  )  5)))):named l3))
(assert (! (forall ((s Int)) (=> (and ( type_bd4a0b47_c601_4082_b8e1_49ac329b1fe9_Student s )  ( type_bd4a0b47_c601_4082_b8e1_49ac329b1fe9_Person s ) ) (exists ((v Int)) (and ( type_bd4a0b47_c601_4082_b8e1_49ac329b1fe9_Module v )  ( rel_24d1f4fa_34d8_41a6_8837_3ac117062d82_choose ( obj_593bb65d_e1d4_4f43_a3b9_6280be09e99e s )   ( obj_593bb65d_e1d4_4f43_a3b9_6280be09e99e v )  ) )))):named l4))
(assert (! (exists ((o Int)) (and ( type_bd4a0b47_c601_4082_b8e1_49ac329b1fe9_Child ( obj_593bb65d_e1d4_4f43_a3b9_6280be09e99e o )  )  ( type_bd4a0b47_c601_4082_b8e1_49ac329b1fe9_Person ( obj_593bb65d_e1d4_4f43_a3b9_6280be09e99e o )  ) )):named c0))
(assert (! (exists ((o Int)) ( type_bd4a0b47_c601_4082_b8e1_49ac329b1fe9_Department ( obj_593bb65d_e1d4_4f43_a3b9_6280be09e99e o )  ) ):named c1))
(assert (! (exists ((o Int)) ( type_bd4a0b47_c601_4082_b8e1_49ac329b1fe9_Module ( obj_593bb65d_e1d4_4f43_a3b9_6280be09e99e o )  ) ):named c2))
(assert (! (exists ((o Int)) (and ( type_bd4a0b47_c601_4082_b8e1_49ac329b1fe9_Student ( obj_593bb65d_e1d4_4f43_a3b9_6280be09e99e o )  )  ( type_bd4a0b47_c601_4082_b8e1_49ac329b1fe9_Person ( obj_593bb65d_e1d4_4f43_a3b9_6280be09e99e o )  ) )):named c4))
(assert (! (exists ((o Int)) ( type_bd4a0b47_c601_4082_b8e1_49ac329b1fe9_University ( obj_593bb65d_e1d4_4f43_a3b9_6280be09e99e o )  ) ):named c5))

 ;end of formula 